
Welcome to IBM(R) ILOG(R) CPLEX(R) Interactive Optimizer 22.1.1.0
  with Simplex, Mixed Integer & Barrier Optimizers
5725-A06 5725-A29 5724-Y48 5724-Y49 5724-Y54 5724-Y55 5655-Y21
Copyright IBM Corp. 1988, 2022.  All Rights Reserved.

Type 'help' for a list of available commands.
Type 'help' followed by a command name for more
information on commands.

CPLEX> Selected objective sense:  MINIMIZE
Selected objective  name:  00000000
Selected RHS        name:  RHS1
Selected bound      name:  BOUND
Problem 'ee.mps' read.
Read time = 0.03 sec. (3.14 ticks)
CPLEX> New value for time limit in seconds: 7200
CPLEX> New value for parallel optimization mode: -1
CPLEX> New value for default parallel thread count: 40
CPLEX> New value for mixed integer optimality gap tolerance: 1e-13
CPLEX> Version identifier: 22.1.1.0 | 2022-11-28 | 9160aff4d
CPXPARAM_Threads                                 40
CPXPARAM_Parallel                                -1
CPXPARAM_TimeLimit                               7200
CPXPARAM_MIP_Tolerances_MIPGap                   1e-13
Found incumbent of value 0.000000 after 0.00 sec. (0.31 ticks)
Tried aggregator 2 times.
MIP Presolve eliminated 183 rows and 2745 columns.
MIP Presolve modified 5862 coefficients.
Aggregator did 713 substitutions.
Reduced MIP has 3624 rows, 7744 columns, and 28665 nonzeros.
Reduced MIP has 7744 binaries, 0 generals, 0 SOSs, and 0 indicators.
Presolve time = 0.07 sec. (68.82 ticks)
Probing time = 0.03 sec. (5.87 ticks)
Tried aggregator 1 time.
Detecting symmetries...
Reduced MIP has 3624 rows, 7744 columns, and 28665 nonzeros.
Reduced MIP has 7744 binaries, 0 generals, 0 SOSs, and 0 indicators.
Presolve time = 0.02 sec. (21.93 ticks)
Probing time = 0.02 sec. (5.68 ticks)
Clique table members: 18557.
MIP emphasis: balance optimality and feasibility.
MIP search method: dynamic search.
Parallel mode: opportunistic, using up to 40 threads.
Root relaxation solution time = 0.17 sec. (128.77 ticks)

        Nodes                                         Cuts/
   Node  Left     Objective  IInf  Best Integer    Best Bound    ItCnt     Gap

*     0+    0                            0.0000  -1.31000e+13              --- 
*     0+    0                      -5.39000e+12  -1.31000e+13           143.04%
*     0+    0                      -5.50000e+12  -1.31000e+13           138.18%
      0     0  -1.30900e+13   150  -5.50000e+12  -1.30900e+13     2661  138.00%
*     0+    0                      -1.21000e+13  -1.30900e+13             8.18%
*     0+    0                      -1.30900e+13  -1.30900e+13             0.00%
      0     0  -1.30900e+13   197  -1.30900e+13     Cuts: 131     3507    0.00%
*     0+    0                      -1.30900e+13  -1.30900e+13             0.00%
      0     0  -1.30900e+13   192  -1.30900e+13      Cuts: 91     4254    0.00%
      0     0  -1.30900e+13   298  -1.30900e+13     Cuts: 117     5163    0.00%
*     0+    0                      -1.30900e+13  -1.30900e+13             0.00%
*     0+    0                      -1.30900e+13  -1.30900e+13             0.00%

Repeating presolve.
Tried aggregator 3 times.
MIP Presolve eliminated 1100 rows and 3378 columns.
MIP Presolve added 114 rows and 0 columns.
MIP Presolve modified 357 coefficients.
Aggregator did 674 substitutions.
Reduced MIP has 1964 rows, 3633 columns, and 13416 nonzeros.
Reduced MIP has 3633 binaries, 0 generals, 0 SOSs, and 0 indicators.
Presolve time = 0.08 sec. (79.35 ticks)
Probing fixed 6 vars, tightened 0 bounds.
Probing time = 0.04 sec. (14.79 ticks)
Tried aggregator 1 time.
Detecting symmetries...
MIP Presolve eliminated 20 rows and 27 columns.
MIP Presolve added 6 rows and 0 columns.
Reduced MIP has 1950 rows, 3606 columns, and 13353 nonzeros.
Reduced MIP has 3606 binaries, 0 generals, 0 SOSs, and 0 indicators.
Presolve time = 0.01 sec. (14.17 ticks)
Represolve time = 0.18 sec. (137.05 ticks)
Probing time = 0.02 sec. (3.92 ticks)
Clique table members: 8551.
MIP emphasis: balance optimality and feasibility.
MIP search method: dynamic search.
Parallel mode: opportunistic, using up to 40 threads.
Root relaxation solution time = 0.13 sec. (110.68 ticks)

        Nodes                                         Cuts/
   Node  Left     Objective  IInf  Best Integer    Best Bound    ItCnt     Gap

*     0+    0                      -1.30900e+13  -1.30900e+13             0.00%
      0     0  -1.30900e+13   187  -1.30900e+13  -1.30900e+13     8251    0.00%
      0     0  -1.30900e+13   187  -1.30900e+13      Cuts: 82     8477    0.00%
      0     0  -1.30900e+13   210  -1.30900e+13      Cuts: 97     8663    0.00%
      0     2  -1.30900e+13   210  -1.30900e+13  -1.30900e+13     8663    0.00%
Elapsed time = 3.23 sec. (2466.25 ticks, tree = 0.02 MB, solutions = 8)
    854    54        cutoff        -1.30900e+13  -1.30900e+13    38185    0.00%

GUB cover cuts applied:  12
Clique cuts applied:  50
Cover cuts applied:  278
Implied bound cuts applied:  3
Flow cuts applied:  11
Mixed integer rounding cuts applied:  41
Zero-half cuts applied:  21
Lift and project cuts applied:  19
Gomory fractional cuts applied:  17

Root node processing (before b&c):
  Real time             =    2.66 sec. (2465.21 ticks)
Parallel b&c, 40 threads:
  Real time             =    1.91 sec. (471.66 ticks)
  Sync time (average)   =    1.22 sec.
  Wait time (average)   =    0.00 sec.
                          ------------
Total (root+branch&cut) =    4.57 sec. (2936.87 ticks)

Solution pool: 8 solutions saved.

MIP - Integer optimal solution:  Objective = -1.3089999090e+13
Solution time =    4.64 sec.  Iterations = 60585  Nodes = 1161
Deterministic time = 2936.90 ticks  (632.61 ticks/sec)

CPLEX> Solution 'p9' written to file 'ee.sol'.
CPLEX> 